100
2 70
53 22
84 34
83 80
68 59
80 63
46 86
99 83
94 43
79 15
60 12
44 18
7 87
80 94
76 81
80 26
37 58
57 58
9 15
26 83
45 67
54 37
56 1
30 75
99 74
51 46
31 66
43 28
23 24
17 62
63 73
77 13
51 49
4 73
10 56
50 65
14 81
30 91
95 52
88 33
26 89
49 50
66 25
30 86
83 64
83 3
41 20
98 73
94 53
18 89
15 10
66 54
16 51
56 83
40 3
20 76
16 60
5 51
82 53
49 70
25 43
16 30
57 55
37 21
93 74
10 9
61 82
9 16
4 81
3 35
79 75
76 79
58 56
51 44
47 62
11 4
68 61
6 32
33 85
25 21
75 48
17 46
35 35
20 84
6 40
14 6
96 6
70 98
71 73
0 95
37 29
25 29
18 57
21 38
51 42
19 21
89 58
21 45
95 18
38 6
